SPARKNaCl/why3-cvc5/sparknacl-secretbox.adb_39_39_length_check2_1.smt2
;; produced by cvc5.drv ;;
(set-logic ALL)
(set-info :smt-lib-version 2.6)
;;; generated by SMT-LIB2 driver
;;; SMT-LIB2 driver: bit-vectors, common part
;;; SMT-LIB2: integer arithmetic
;; "pow2"
(declare-fun pow2 (Int) Int)

(declare-const two_power_size_minus_one Int)

;; "two_power_size_minus_one_val"
(assert (= two_power_size_minus_one (pow2 (- 8 1))))

;; "min"
(define-fun min ((x Int) (y Int)) Int
  (ite (<= x y) x y))

;; "max"
(define-fun max ((x Int) (y Int)) Int
  (ite (<= x y) y x))

;; "Min_r"
(assert (forall ((x Int) (y Int)) (=> (<= y x) (= (min x y) y))))

;; "Max_l"
(assert (forall ((x Int) (y Int)) (=> (<= y x) (= (max x y) x))))

;; "Min_comm"
(assert (forall ((x Int) (y Int)) (= (min x y) (min y x))))

;; "Max_comm"
(assert (forall ((x Int) (y Int)) (= (max x y) (max y x))))

;; "Min_assoc"
(assert
  (forall ((x Int) (y Int) (z Int)) (= (min (min x y) z) (min x (min y z)))))

;; "Max_assoc"
(assert
  (forall ((x Int) (y Int) (z Int)) (= (max (max x y) z) (max x (max y z)))))

(declare-sort byte 0)

;; "to_rep"
(declare-fun to_rep (byte) (_ BitVec 8))

;; "of_rep"
(declare-fun of_rep ((_ BitVec 8)) byte)

;; "inversion_axiom"
(assert
  (forall ((x byte)) (! (= (of_rep (to_rep x)) x) :pattern ((to_rep x)) )))

;; "range_axiom"
(assert true)

;; "coerce_axiom"
(assert
  (forall ((x (_ BitVec 8)))
    (! (= (to_rep (of_rep x)) x) :pattern ((to_rep (of_rep x))) )))

(declare-sort map1 0)

;; "has_bounds"
(declare-fun has_bounds (map1
  Int
  Int) Bool)

;; "get"
(declare-fun get (map1
  Int) byte)

;; "slide"
(declare-fun slide (map1
  Int
  Int) map1)

;; "slide_eq"
(assert
  (forall ((a map1) (first Int))
    (! (= (slide a first first) a) :pattern ((slide a first first)) )))

;; "slide_def"
(assert
  (forall ((a map1) (old_first Int) (new_first Int))
    (! (and
         (forall ((i Int))
           (! (= (get (slide a old_first new_first) i) (get
                                                         a
                                                         (- i (- new_first old_first)))) :pattern (
           (get
             (slide a old_first new_first)
             i)) ))
         (forall ((new_last Int))
           (! (=>
                (has_bounds a old_first (- new_last (- new_first old_first)))
                (has_bounds (slide a old_first new_first) new_first new_last)) :pattern (
           (has_bounds
             (slide a old_first new_first)
             new_first
             new_last)) ))) :pattern ((slide a old_first new_first)) )))

;; "slice"
(declare-fun slice (map1
  Int
  Int) map1)

;; "slice_eq"
(assert
  (forall ((a map1) (f Int) (l Int))
    (! (=> (has_bounds a f l) (= (slice a f l) a)) :pattern ((slice a f l)
    (has_bounds a f l)) )))

;; "slice_slice"
(assert
  (forall ((a map1) (f1 Int) (l1 Int) (f2 Int) (l2 Int))
    (! (=>
         (and (<= f1 f2) (<= l2 l1))
         (= (slice (slice a f1 l1) f2 l2) (slice a f2 l2))) :pattern (
    (slice
      (slice a f1 l1)
      f2
      l2)) )))

;; "slice_def"
(assert
  (forall ((a map1) (f Int) (l Int))
    (! (forall ((i Int))
         (! (=> (and (<= f i) (<= i l)) (= (get (slice a f l) i) (get a i))) :pattern (
         (get
           (slice a f l)
           i)) :pattern ((get a i)) )) :pattern ((slice a f l)) )))

;; "slice_has_bounds"
(assert
  (forall ((a map1) (f Int) (l Int))
    (! (has_bounds (slice a f l) f l) :pattern ((has_bounds
                                                  (slice a f l)
                                                  f
                                                  l)) )))

(declare-sort tinteger_32B 0)

;; "tinteger_32B'int"
(declare-fun tinteger_32Bqtint (tinteger_32B) Int)

;; "tinteger_32B'axiom"
(assert
  (forall ((i tinteger_32B))
    (and
      (<= (- 2147483648) (tinteger_32Bqtint i))
      (<= (tinteger_32Bqtint i) 2147483647))))

;; "in_range"
(define-fun in_range ((x Int)) Bool
  (and (<= (- 2147483648) x) (<= x 2147483647)))

(declare-const c__first tinteger_32B)

(declare-const c__last tinteger_32B)

;; "to_rep"
(define-fun to_rep1 ((x tinteger_32B)) Int
  (tinteger_32Bqtint x))

;; "of_rep"
(declare-fun of_rep1 (Int) tinteger_32B)

;; "inversion_axiom"
(assert
  (forall ((x tinteger_32B))
    (! (= (of_rep1 (to_rep1 x)) x) :pattern ((to_rep1 x)) )))

;; "range_axiom"
(assert
  (forall ((x tinteger_32B))
    (! (in_range (to_rep1 x)) :pattern ((to_rep1 x)) )))

;; "coerce_axiom"
(assert
  (forall ((x Int))
    (! (=> (in_range x) (= (to_rep1 (of_rep1 x)) x)) :pattern ((to_rep1
                                                                 (of_rep1 x))) )))

;; "in_range"
(define-fun in_range1 ((x Int)) Bool
  (and (<= 0 x) (<= x 2147483647)))

(declare-datatypes ((t 0))
  (((tqtmk (rec__first tinteger_32B)(rec__last tinteger_32B)))))

;; "mk"
(declare-fun mk (Int
  Int) t)

;; "mk_def"
(assert
  (forall ((f Int) (l Int))
    (! (=>
         (in_range f)
         (=>
           (in_range l)
           (and
             (= (to_rep1 (rec__first (mk f l))) f)
             (= (to_rep1 (rec__last (mk f l))) l)))) :pattern ((mk f l)) )))

;; "dynamic_property"
(define-fun dynamic_property ((range_first Int) (range_last Int) (low Int) (high Int)) Bool
  (and
    (in_range low)
    (and
      (in_range high)
      (=> (<= low high) (and (in_range1 low) (in_range1 high))))))

(declare-datatypes ((us_t 0))
  (((us_tqtmk (elts map1)(rt t)))))

;; "to_array"
(define-fun to_array ((a us_t)) map1
  (elts a))

;; "of_array"
(define-fun of_array ((a map1) (f Int) (l Int)) us_t
  (us_tqtmk a (mk f l)))

;; "first"
(define-fun first ((a us_t)) Int
  (to_rep1 (rec__first (rt a))))

;; "last"
(define-fun last ((a us_t)) Int
  (to_rep1 (rec__last (rt a))))

;; "length"
(define-fun length ((a us_t)) Int
  (ite (<= (first a) (last a)) (+ (- (last a) (first a)) 1) 0))

;; "well_formed"
(define-fun well_formed ((a us_t)) Bool
  (has_bounds
    (elts a)
    (to_rep1 (rec__first (rt a)))
    (to_rep1 (rec__last (rt a)))))

(declare-const m us_t)

(declare-const n map1)

;; "equal"
(declare-fun equal (us_t
  us_t) Bool)

;; "equal__function_guard"
(declare-fun equal__function_guard (Bool
  us_t
  us_t) Bool)

(declare-const zero_bytes_32 map1)

(declare-const zero_bytes_16 map1)

(declare-sort us_main_type 0)

(declare-datatypes ((us_split_fields 0))
  (((us_split_fieldsqtmk
    (rec__ada___sparknacl__mac__poly_1305_key us_main_type)))))

;; "dynamic_invariant"
(define-fun dynamic_invariant ((temp___expr_254 us_t) (temp___is_init_250 Bool) (temp___skip_constant_251 Bool) (temp___do_toplevel_252 Bool) (temp___do_typ_inv_253 Bool)) Bool
  (and
    (=>
      (not (= temp___skip_constant_251 true))
      (dynamic_property
        0
        2147483647
        (first temp___expr_254)
        (last temp___expr_254)))
    (well_formed temp___expr_254)))

;; "sparknacl__zero_bytes_32__aggregate_def"
(declare-fun sparknacl__zero_bytes_32__aggregate_def ((_ BitVec 8)) map1)

;; "sparknacl__zero_bytes_16__aggregate_def"
(declare-fun sparknacl__zero_bytes_16__aggregate_def ((_ BitVec 8)) map1)

;; "zero_bytes_32__def_axiom"
(assert
  (= zero_bytes_32 (let ((temp___174qtunused (sparknacl__zero_bytes_32__aggregate_def
                                               #x00)))
                     (sparknacl__zero_bytes_32__aggregate_def #x00))))

;; "def_axiom"
(assert
  (forall ((temp___170 (_ BitVec 8)))
    (let ((temp___171 (sparknacl__zero_bytes_32__aggregate_def temp___170)))
      (and
        (has_bounds temp___171 0 31)
        (forall ((temp___172 Int))
          (! (=>
               (and (<= 0 temp___172) (<= temp___172 31))
               (= (to_rep (get temp___171 temp___172)) temp___170)) :pattern (
          (get
            temp___171
            temp___172)) ))))))

;; "zero_bytes_16__def_axiom"
(assert
  (= zero_bytes_16 (let ((temp___180qtunused (sparknacl__zero_bytes_16__aggregate_def
                                               #x00)))
                     (sparknacl__zero_bytes_16__aggregate_def #x00))))

;; "def_axiom"
(assert
  (forall ((temp___176 (_ BitVec 8)))
    (let ((temp___177 (sparknacl__zero_bytes_16__aggregate_def temp___176)))
      (and
        (has_bounds temp___177 0 15)
        (forall ((temp___178 Int))
          (! (=>
               (and (<= 0 temp___178) (<= temp___178 15))
               (= (to_rep (get temp___177 temp___178)) temp___176)) :pattern (
          (get
            temp___177
            temp___178)) ))))))

;; "equal__post_axiom"
(assert
  (forall ((param__x us_t) (param__y us_t))
    (! (=>
         (and
           (and
             (dynamic_invariant param__x true false true true)
             (dynamic_invariant param__y true false true true))
           (and
             (= (first param__x) (first param__y))
             (= (last param__x) (last param__y))))
         (let ((result (equal param__x param__y)))
           (=>
             (equal__function_guard result param__x param__y)
             (=
               (= result true)
               (forall ((i Int))
                 (=>
                   (and (<= (first param__x) i) (<= i (last param__x)))
                   (= (to_rep (get (to_array param__x) i)) (to_rep
                                                             (get
                                                               (to_array
                                                                 param__y)
                                                               i))))))))) :pattern (
    (equal
      param__x
      param__y)) )))

;; Goal "def'vc"
;; File "sparknacl-secretbox.ads", line 13, characters 0-0
(assert
  (not
  (forall ((c map1) (r map1))
    (=>
      (has_bounds zero_bytes_16 0 15)
      (forall ((temp___822 map1))
        (=>
          (and
            (and
              (has_bounds temp___822 0 15)
              (forall ((temp___179 Int))
                (! (=>
                     (and (<= 0 temp___179) (<= temp___179 15))
                     (= (to_rep (get temp___822 temp___179)) #x00)) :pattern (
                (get
                  temp___822
                  temp___179)) )))
            (= temp___822 (sparknacl__zero_bytes_16__aggregate_def #x00)))
          (=>
            (= temp___822 zero_bytes_16)
            (=>
              (has_bounds zero_bytes_32 0 31)
              (forall ((temp___827 map1))
                (=>
                  (and
                    (and
                      (has_bounds temp___827 0 31)
                      (forall ((temp___173 Int))
                        (! (=>
                             (and (<= 0 temp___173) (<= temp___173 31))
                             (= (to_rep (get temp___827 temp___173)) #x00)) :pattern (
                        (get
                          temp___827
                          temp___173)) )))
                    (= temp___827 (sparknacl__zero_bytes_32__aggregate_def
                                    #x00)))
                  (=>
                    (= temp___827 zero_bytes_32)
                    (=>
                      (and
                        (dynamic_property
                          0
                          2147483647
                          (to_rep1 c__first)
                          (to_rep1 c__last))
                        (well_formed
                          (of_array c (to_rep1 c__first) (to_rep1 c__last))))
                      (=>
                        (dynamic_invariant m true false true true)
                        (=>
                          (has_bounds n 0 23)
                          (=>
                            (forall ((temp___819 us_t) (temp___818 us_t))
                              (equal__function_guard
                                (equal temp___818 temp___819)
                                temp___818
                                temp___819))
                            (=>
                              (and
                                (and
                                  (and
                                    (and
                                      (= (first m) 0)
                                      (= (to_rep1 c__first) 0))
                                    (= (to_rep1 c__last) (last m)))
                                  (<= 32 (length m)))
                                (= (let ((temp___819 (of_array
                                                       zero_bytes_32
                                                       0
                                                       31)))
                                     (let ((temp___818 (of_array
                                                         (slice
                                                           (to_array m)
                                                           0
                                                           31)
                                                         0
                                                         31)))
                                       (equal temp___818 temp___819))) true))
                              (=>
                                (has_bounds r 0 15)
                                (forall ((o Bool))
                                  (=>
                                    (exists ((o1 Bool))
                                      (and
                                        (exists ((o2 Bool))
                                          (and
                                            (exists ((o3 Bool))
                                              (and
                                                (ite (= (first m) 0)
                                                  (exists ((o4 Int))
                                                    (and
                                                      (= (to_rep1 c__last) o4)
                                                      (exists ((o5 Int))
                                                        (and
                                                          (= (to_rep1
                                                               c__first) o5)
                                                          (exists ((o6 Int))
                                                            (and
                                                              (= (to_rep1
                                                                   c__first) o6)
                                                              (= o3 (ite (= o6 0)
                                                                    true
                                                                    false))))))))
                                                  (= o3 false))
                                                (ite (= o3 true)
                                                  (exists ((o4 Int))
                                                    (and
                                                      (= (to_rep1 c__last) o4)
                                                      (exists ((o5 Int))
                                                        (and
                                                          (= (to_rep1
                                                               c__first) o5)
                                                          (exists ((o6 Int))
                                                            (and
                                                              (= (to_rep1
                                                                   c__last) o6)
                                                              (= o2 (ite (= o6 
                                                                    (last
                                                                    m))
                                                                    true
                                                                    false))))))))
                                                  (= o2 false))))
                                            (ite (= o2 true)
                                              (= o1 (ite (<= 32 (length m))
                                                      true
                                                      false))
                                              (= o1 false))))
                                        (ite (= o1 true)
                                          (let ((o2 (of_array
                                                      zero_bytes_32
                                                      0
                                                      31)))
                                            (and
                                              (=>
                                                (<= 0 31)
                                                (and
                                                  (and
                                                    (<= (first m) 0)
                                                    (<= 0 (last m)))
                                                  (and
                                                    (<= (first m) 31)
                                                    (<= 31 (last m)))))
                                              (let ((temp___788 (slice
                                                                  (to_array
                                                                    m)
                                                                  0
                                                                  31)))
                                                (let ((o3 (of_array
                                                            temp___788
                                                            0
                                                            31)))
                                                  (and
                                                    (= o (equal o3 o2))
                                                    (and
                                                      (equal__function_guard
                                                        o
                                                        o3
                                                        o2)
                                                      (=
                                                        (= o true)
                                                        (forall ((i Int))
                                                          (=>
                                                            (and
                                                              (<= 0 i)
                                                              (<= i 31))
                                                            (= (to_rep
                                                                 (get
                                                                   temp___788
                                                                   i)) 
                                                            (to_rep
                                                              (get
                                                                zero_bytes_32
                                                                i))))))))))))
                                          (= o false))))
                                    (forall ((spark__branch Bool))
                                      (=>
                                        (= spark__branch o)
                                        (=>
                                          (= spark__branch true)
                                          (forall ((o1 Int))
                                            (=>
                                              (= (to_rep1 c__last) o1)
                                              (forall ((o2 Int))
                                                (=>
                                                  (= (to_rep1 c__first) o2)
                                                  (forall ((o3 tinteger_32B))
                                                    (=>
                                                      (= (to_rep1 o3) o1)
                                                      (forall ((o4 tinteger_32B))
                                                        (=>
                                                          (= (to_rep1 o4) o2)
                                                          (forall ((param__c map1))
                                                            (=>
                                                              (dynamic_invariant
                                                                (of_array
                                                                  param__c
                                                                  (to_rep1
                                                                    o4)
                                                                  (to_rep1
                                                                    o3))
                                                                true
                                                                true
                                                                true
                                                                true)
                                                              (forall 
                                                                ((o5 Int))
                                                                (=>
                                                                  (= 
                                                                  (to_rep1
                                                                    c__first) o5)
                                                                  (forall 
                                                                    ((o6 Int))
                                                                    (=>
                                                                    (= 
                                                                    (to_rep1
                                                                    c__last) o6)
                                                                    (forall 
                                                                    ((o7 Int))
                                                                    (=>
                                                                    (= 
                                                                    (to_rep1
                                                                    c__first) o7)
                                                                    (forall 
                                                                    ((c1 map1))
                                                                    (=>
                                                                    (= c1 
                                                                    (slide
                                                                    param__c
                                                                    o2
                                                                    o5))
                                                                    (forall 
                                                                    ((o8 Int))
                                                                    (=>
                                                                    (= 
                                                                    (to_rep1
                                                                    c__last) o8)
                                                                    (forall 
                                                                    ((o9 Int))
                                                                    (=>
                                                                    (= 
                                                                    (to_rep1
                                                                    c__first) o9)
                                                                    (=>
                                                                    (=>
                                                                    (<= 0 31)
                                                                    (and
                                                                    (and
                                                                    (<= o9 0)
                                                                    (<= 0 o8))
                                                                    (and
                                                                    (<= o9 31)
                                                                    (<= 31 o8))))
                                                                    (forall 
                                                                    ((o10 Int))
                                                                    (=>
                                                                    (= 
                                                                    (to_rep1
                                                                    c__last) o10)
                                                                    (forall 
                                                                    ((o11 Int))
                                                                    (=>
                                                                    (= 
                                                                    (to_rep1
                                                                    c__first) o11)
                                                                    (forall 
                                                                    ((temp___732 Int))
                                                                    (=>
                                                                    (= 
                                                                    (to_rep1
                                                                    c__last) temp___732)
                                                                    (forall 
                                                                    ((o12 Int))
                                                                    (=>
                                                                    (= 
                                                                    (to_rep1
                                                                    c__last) o12)
                                                                    (forall 
                                                                    ((o13 Int))
                                                                    (=>
                                                                    (= 
                                                                    (to_rep1
                                                                    c__first) o13)
                                                                    (=>
                                                                    (=>
                                                                    (<= 32 temp___732)
                                                                    (and
                                                                    (and
                                                                    (<= o13 32)
                                                                    (<= 32 o12))
                                                                    (and
                                                                    (<= o13 temp___732)
                                                                    (<= temp___732 o12))))
                                                                    (=>
                                                                    (<= 32 temp___732)
                                                                    (= (- temp___732 32) (- (- 
                                                                    (to_rep1
                                                                    c__last) 32) 0)))))))))))))))))))))))))))))))))))))))))))))))))))))))))))

(check-sat)
